S = 10;
C = 9;
min_u_computo = 20;
server_viejo = 8;

% Declaracion de vectores
oferta = [100, 100, 100, 90, 90, 80, 80, 80, 90, 100];
demanda = [100, 100, 100, 50, 80, 100, 150, 30, 70];
max_u_computo_clientes = [75, 60, 50, 40, 50, 80, 40, 20, 60];